c User generated cnf file
p cnf 11 28
5 -7 2 0 
3 11 -2 0 
5 -7 1 0 
1 8 -11 0 
8 1 -8 0 
-7 8 3 0 
9 10 -2 0 
2 -8 10 0 
5 -4 6 0 
11 -6 3 0 
6 -8 7 0 
-4 11 7 0 
-4 3 9 0 
8 -3 7 0 
8 -3 7 0 
-5 9 3 0 
9 8 -11 0 
9 -1 3 0 
-3 7 4 0 
8 2 -5 0 
-9 8 11 0 
8 -11 7 0 
11 -11 4 0 
-9 10 1 0 
3 -10 3 0 
8 1 -4 0 
-1 5 9 0 
3 -8 2 0 
